data/mip_solutions/furman_sahinidis/transshipment/15sp-tkm_gurobi.sol
Elapsed time: 0.136949062347
Nodes explored: 135
Upper bound: 19.0
Lower bound: 19.0
y[0,0]=1
y[1,0]=1
y[2,0]=1
y[2,1]=1
y[2,3]=1
y[3,4]=1
y[4,4]=1
y[5,4]=1
y[6,0]=1
y[6,3]=1
y[6,4]=1
y[7,0]=1
y[7,4]=1
y[7,5]=1
y[8,5]=1
y[8,6]=1
y[9,0]=1
y[9,2]=1
y[9,4]=1
q[0,0,3]=169.6
q[0,0,5]=132.5
q[0,0,6]=21.2
q[0,0,8]=53.0
q[0,0,9]=5.3
q[0,0,12]=148.4
q[0,0,13]=121.9
q[1,0,4]=823.2
q[1,0,5]=100.8
q[1,0,7]=56.6
q[1,0,8]=178.6
q[2,0,6]=199.0
q[2,1,3]=540.5
q[2,1,4]=2053.9
q[2,3,4]=165.6
q[2,3,5]=110.4
q[2,3,6]=73.6
q[2,3,7]=18.4
q[2,3,8]=165.6
q[3,4,6]=827.0
q[3,4,7]=145.5
q[3,4,8]=381.5
q[4,4,7]=134.6
q[4,4,8]=1211.4
q[5,4,8]=928.0
q[6,0,9]=51.3
q[6,0,10]=177.4
q[6,3,9]=18.4
q[6,3,10]=184.0
q[6,3,11]=128.8
q[6,4,9]=280.1
q[7,0,10]=388.6
q[7,0,11]=396.2
q[7,0,12]=474.2
q[7,0,13]=1179.9
q[7,4,10]=2801.0
q[7,5,11]=2198.0
q[7,5,12]=3454.0
q[7,5,13]=1108.1
q[8,5,13]=6113.9
q[8,6,14]=1338.1
q[9,0,2]=622.6
q[9,0,3]=170.0
q[9,0,4]=252.2
q[9,0,5]=106.3
q[9,0,6]=6.2
q[9,0,8]=277.8
q[9,2,4]=2870.0
q[9,2,5]=1230.0
q[9,4,6]=293.4
r[0,2]=10.6
r[0,3]=137.8
r[0,5]=100.7
r[0,8]=5.3
r[0,11]=53.0
r[0,12]=90.1
r[1,3]=403.2
r[1,4]=504.0
r[1,7]=67.2
r[1,8]=27.4
r[2,4]=2786.5
r[2,5]=567.0
r[2,6]=456.6
r[2,7]=184.0
r[2,8]=165.6
r[3,5]=1354.0
r[3,6]=1354.0
r[3,7]=527.0
r[3,8]=381.5
r[6,10]=490.2
r[6,11]=128.8
r[7,11]=8810.4
r[7,12]=6216.2
r[7,13]=2288.0
r[8,14]=1338.1
r[9,1]=5828.5
r[9,2]=5828.5
r[9,3]=5205.9
r[9,4]=5035.9
r[9,5]=1913.7
r[9,6]=577.4
r[9,7]=277.8
r[9,8]=277.8
